% Generated by MiniZinc 2.9.3
% Solver library: /home/icwmmarijnisse/Pumpkin/minizinc/lib
% Command line invocation: minizinc --compile --fzn ./instance.fzn --ozn ./instance.ozn --solver pumpkin ../../../../benchmarks/models/rcpsp/rcpsp.mzn ../../../../benchmarks/models/rcpsp/small_J90_37_1.dzn 

predicate int_lin_le_imp(array [int] of int: as,array [int] of var int: bs,int: c,var bool: r);
predicate pumpkin_cumulative(array [int] of var int: s,array [int] of int: d,array [int] of int: r,int: b);
array [1..2] of int: X_INTRODUCED_25_ = [1,-1];
var 0..31: X_INTRODUCED_16_;
var 0..31: X_INTRODUCED_17_;
var 0..31: X_INTRODUCED_18_;
var 0..31: X_INTRODUCED_19_;
var 0..31: X_INTRODUCED_20_;
var 0..31: X_INTRODUCED_21_;
var 0..32: Objective:: output_var;
var bool: X_INTRODUCED_28_ ::var_is_introduced :: is_defined_var;
var bool: X_INTRODUCED_30_ ::var_is_introduced :: is_defined_var;
array [1..6] of var int: Start:: output_array([1..6]) = [X_INTRODUCED_16_,X_INTRODUCED_17_,X_INTRODUCED_18_,X_INTRODUCED_19_,X_INTRODUCED_20_,X_INTRODUCED_21_];
array [1..5] of var int: X_INTRODUCED_33_ ::var_is_introduced  = [X_INTRODUCED_16_,X_INTRODUCED_18_,X_INTRODUCED_19_,X_INTRODUCED_20_,X_INTRODUCED_21_];
array [1..7] of var int: X_INTRODUCED_36_ ::var_is_introduced  = [X_INTRODUCED_16_,X_INTRODUCED_17_,X_INTRODUCED_18_,X_INTRODUCED_19_,X_INTRODUCED_20_,X_INTRODUCED_21_,Objective];
constraint int_lin_le(X_INTRODUCED_25_,[X_INTRODUCED_16_,X_INTRODUCED_21_],-7);
constraint int_lin_le(X_INTRODUCED_25_,[X_INTRODUCED_17_,X_INTRODUCED_20_],-1);
constraint int_lin_le(X_INTRODUCED_25_,[X_INTRODUCED_18_,X_INTRODUCED_19_],-8);
constraint bool_clause([X_INTRODUCED_28_,X_INTRODUCED_30_],[]);
constraint pumpkin_cumulative(X_INTRODUCED_33_,[7,8,10,5,1],[10,3,7,5,1],15);
constraint int_lin_le(X_INTRODUCED_25_,[X_INTRODUCED_19_,Objective],-10);
constraint int_lin_le(X_INTRODUCED_25_,[X_INTRODUCED_20_,Objective],-5);
constraint int_lin_le(X_INTRODUCED_25_,[X_INTRODUCED_21_,Objective],-1);
constraint int_lin_le_imp(X_INTRODUCED_25_,[X_INTRODUCED_16_,X_INTRODUCED_19_],-7,X_INTRODUCED_28_):: defines_var(X_INTRODUCED_28_);
constraint int_lin_le_imp(X_INTRODUCED_25_,[X_INTRODUCED_19_,X_INTRODUCED_16_],-10,X_INTRODUCED_30_):: defines_var(X_INTRODUCED_30_);
solve :: int_search(X_INTRODUCED_36_,smallest,indomain_min,complete) minimize Objective;
